
        $ From http://www.csplib.org/Problems/prob009/data/helmut.pdf
        $ Problem number 64
        $ Sequence length : 25
        language ESSENCE' 1.0
        letting sizemaster be 273
        letting sizes be sequence(1,6,9,14,16,17,18,21,22,23,25,31,32,38,44,46,48,50,54,62,65,68,78,133,140)
        